NAME : gaussian_random50.3176.tour
COMMENT : Length = 3176
COMMENT : Found by LKH [Keld Helsgaun] Sun Jul  7 17:44:01 2024
TYPE : TOUR
DIMENSION : 50
TOUR_SECTION
1
22
35
44
10
29
20
21
43
14
37
38
42
31
12
45
50
17
2
28
5
18
46
11
3
7
27
48
26
25
36
41
34
4
47
30
6
9
19
24
13
32
39
40
8
16
49
33
15
23
-1
EOF
